p cnf 533 1250
a 447 261 453 183 212 215 465 235 359 362 292 480 368 371 375 378 385 388 392 395 400 506 405 408 414 417 421 424 429 432 436 439 7 13 24 30 2 1 40 18 6 12 35 23 29 50 45 60 55 70 65 80 75 85 90 95 105 100 110 115 120 130 125 135 140 145 181 159 154 150 163 168 176 172 211 190 206 201 197 232 222 227 250 242 246 260 255 276 271 267 281 291 286 299 303 307 315 311 320 325 330 335 340 345 349 353 0
d 403 2 506 345 7 349 0
d 366 291 299 480 303 307 0
d 358 181 211 232 250 260 0
d 164 24 30 0
d 182 453 159 163 2 0
d 192 24 30 0
d 191 7 13 0
d 251 447 242 246 2 0
d 233 465 2 0
d 3 2 0
d 4 1 2 0
d 5 1 2 0
d 8 7 0
d 9 6 7 0
d 10 6 7 0
d 11 1 2 6 7 0
d 14 13 0
d 15 12 13 0
d 16 12 13 0
d 17 1 2 6 7 12 13 0
d 19 6 12 0
d 20 18 6 12 0
d 21 18 6 12 0
d 22 1 2 6 7 12 13 18 0
d 25 24 0
d 26 23 24 0
d 27 23 24 0
d 28 1 2 6 7 12 13 18 23 24 0
d 31 30 0
d 32 29 30 0
d 33 29 30 0
d 34 1 2 6 7 12 13 18 23 24 29 30 0
d 36 23 29 0
d 37 35 23 29 0
d 38 35 23 29 0
d 39 1 2 6 7 12 13 18 23 24 29 30 35 0
d 41 18 35 0
d 42 40 18 35 0
d 43 40 18 35 0
d 44 1 2 6 7 12 13 18 23 24 29 30 35 40 0
d 46 7 12 0
d 47 45 7 12 0
d 48 45 7 12 0
d 49 1 2 6 7 12 13 18 23 24 29 30 35 40 45 0
d 51 45 35 0
d 52 50 45 35 0
d 53 50 45 35 0
d 54 1 2 6 7 12 13 18 23 24 29 30 35 40 45 50 0
d 56 6 13 0
d 57 55 6 13 0
d 58 55 6 13 0
d 59 1 2 6 7 12 13 18 23 24 29 30 35 40 45 50 55 0
d 61 55 35 0
d 62 60 55 35 0
d 63 60 55 35 0
d 64 1 2 6 7 12 13 18 23 24 29 30 35 40 45 50 55 60 0
d 66 7 13 0
d 67 65 7 13 0
d 68 65 7 13 0
d 69 1 2 6 7 12 13 18 23 24 29 30 35 40 45 50 55 60 65 0
d 71 65 35 0
d 72 70 65 35 0
d 73 70 65 35 0
d 74 1 2 6 7 12 13 18 23 24 29 30 35 40 45 50 55 60 65 70 0
d 76 24 29 0
d 77 75 24 29 0
d 78 75 24 29 0
d 79 1 2 6 7 12 13 18 23 24 29 30 35 40 45 50 55 60 65 70 75 0
d 81 18 75 0
d 82 80 18 75 0
d 83 80 18 75 0
d 84 1 2 6 7 12 13 18 23 24 29 30 35 40 45 50 55 60 65 70 75 80 0
d 86 45 75 0
d 87 85 45 75 0
d 88 85 45 75 0
d 89 1 2 6 7 12 13 18 23 24 29 30 35 40 45 50 55 60 65 70 75 80 85 0
d 91 55 75 0
d 92 90 55 75 0
d 93 90 55 75 0
d 94 1 2 6 7 12 13 18 23 24 29 30 35 40 45 50 55 60 65 70 75 80 85 90 0
d 96 65 75 0
d 97 95 65 75 0
d 98 95 65 75 0
d 99 1 2 6 7 12 13 18 23 24 29 30 35 40 45 50 55 60 65 70 75 80 85 90 95 0
d 101 23 30 0
d 102 100 23 30 0
d 103 100 23 30 0
d 104 1 2 6 7 12 13 18 23 24 29 30 35 40 45 50 55 60 65 70 75 80 85 90 95 100 0
d 106 18 100 0
d 107 105 18 100 0
d 108 105 18 100 0
d 109 1 2 6 7 12 13 18 23 24 29 30 35 40 45 50 55 60 65 70 75 80 85 90 95 100 105 0
d 111 45 100 0
d 112 110 45 100 0
d 113 110 45 100 0
d 114 1 2 6 7 12 13 18 23 24 29 30 35 40 45 50 55 60 65 70 75 80 85 90 95 100 105 110 0
d 116 55 100 0
d 117 115 55 100 0
d 118 115 55 100 0
d 119 1 2 6 7 12 13 18 23 24 29 30 35 40 45 50 55 60 65 70 75 80 85 90 95 100 105 110 115 0
d 121 65 100 0
d 122 120 65 100 0
d 123 120 65 100 0
d 124 1 2 6 7 12 13 18 23 24 29 30 35 40 45 50 55 60 65 70 75 80 85 90 95 100 105 110 115 120 0
d 126 24 30 0
d 127 125 24 30 0
d 128 125 24 30 0
d 129 1 2 6 7 12 13 18 23 24 29 30 35 40 45 50 55 60 65 70 75 80 85 90 95 100 105 110 115 120 125 0
d 131 18 125 0
d 132 130 18 125 0
d 133 130 18 125 0
d 134 1 2 6 7 12 13 18 23 24 29 30 35 40 45 50 55 60 65 70 75 80 85 90 95 100 105 110 115 120 125 130 0
d 136 45 125 0
d 137 135 45 125 0
d 138 135 45 125 0
d 139 1 2 6 7 12 13 18 23 24 29 30 35 40 45 50 55 60 65 70 75 80 85 90 95 100 105 110 115 120 125 130 135 0
d 141 55 125 0
d 142 140 55 125 0
d 143 140 55 125 0
d 144 1 2 6 7 12 13 18 23 24 29 30 35 40 45 50 55 60 65 70 75 80 85 90 95 100 105 110 115 120 125 130 135 140 0
d 146 65 125 0
d 147 145 65 125 0
d 148 145 65 125 0
d 149 1 2 6 7 12 13 18 23 24 29 30 35 40 45 50 55 60 65 70 75 80 85 90 95 100 105 110 115 120 125 130 135 140 145 0
d 151 150 7 0
d 152 150 7 0
d 153 1 2 6 7 12 13 18 23 24 29 30 35 40 45 50 55 60 65 70 75 80 85 90 95 100 105 110 115 120 125 130 135 140 145 150 0
d 155 150 13 0
d 156 154 150 13 0
d 157 154 150 13 0
d 158 1 2 6 7 12 13 18 23 24 29 30 35 40 45 50 55 60 65 70 75 80 85 90 95 100 105 110 115 120 125 130 135 140 145 150 154 0
d 160 159 154 0
d 161 159 154 0
d 162 1 2 6 7 12 13 18 23 24 29 30 35 40 45 50 55 60 65 70 75 80 85 90 95 100 105 110 115 120 125 130 135 140 145 150 154 159 0
d 165 163 24 30 0
d 166 163 24 30 0
d 167 1 2 6 7 12 13 18 23 24 29 30 35 40 45 50 55 60 65 70 75 80 85 90 95 100 105 110 115 120 125 130 135 140 145 150 154 159 163 0
d 169 168 2 0
d 170 168 2 0
d 171 1 2 6 7 12 13 18 23 24 29 30 35 40 45 50 55 60 65 70 75 80 85 90 95 100 105 110 115 120 125 130 135 140 145 150 154 159 163 168 0
d 173 172 7 13 0
d 174 172 7 13 0
d 175 1 2 6 7 12 13 18 23 24 29 30 35 40 45 50 55 60 65 70 75 80 85 90 95 100 105 110 115 120 125 130 135 140 145 150 154 159 163 168 172 0
d 177 172 24 30 0
d 178 176 172 24 30 0
d 179 176 172 24 30 0
d 180 1 2 6 7 12 13 18 23 24 29 30 35 40 45 50 55 60 65 70 75 80 85 90 95 100 105 110 115 120 125 130 135 140 145 150 154 159 163 168 172 176 0
d 184 168 183 0
d 185 168 183 176 0
d 186 453 159 163 2 168 183 176 0
d 187 181 453 159 163 2 168 183 176 0
d 188 181 453 159 163 2 168 183 176 0
d 189 1 2 6 7 12 13 18 23 24 29 30 35 40 45 50 55 60 65 70 75 80 85 90 95 100 105 110 115 120 125 130 135 140 145 150 154 159 163 168 172 176 181 453 183 0
d 193 7 13 24 30 0
d 194 190 7 13 24 30 0
d 195 190 7 13 24 30 0
d 196 1 2 6 7 12 13 18 23 24 29 30 35 40 45 50 55 60 65 70 75 80 85 90 95 100 105 110 115 120 125 130 135 140 145 150 154 159 163 168 172 176 181 453 183 190 0
d 198 197 13 0
d 199 197 13 0
d 200 1 2 6 7 12 13 18 23 24 29 30 35 40 45 50 55 60 65 70 75 80 85 90 95 100 105 110 115 120 125 130 135 140 145 150 154 159 163 168 172 176 181 453 183 190 197 0
d 202 7 197 0
d 203 201 7 197 0
d 204 201 7 197 0
d 205 1 2 6 7 12 13 18 23 24 29 30 35 40 45 50 55 60 65 70 75 80 85 90 95 100 105 110 115 120 125 130 135 140 145 150 154 159 163 168 172 176 181 453 183 190 197 201 0
d 207 201 24 30 0
d 208 206 201 24 30 0
d 209 206 201 24 30 0
d 210 1 2 6 7 12 13 18 23 24 29 30 35 40 45 50 55 60 65 70 75 80 85 90 95 100 105 110 115 120 125 130 135 140 145 150 154 159 163 168 172 176 181 453 183 190 197 201 206 0
d 213 168 212 0
d 214 168 212 190 0
d 216 168 215 0
d 217 168 215 206 0
d 218 168 212 190 215 206 0
d 219 211 168 212 190 215 206 0
d 220 211 168 212 190 215 206 0
d 221 1 2 6 7 12 13 18 23 24 29 30 35 40 45 50 55 60 65 70 75 80 85 90 95 100 105 110 115 120 125 130 135 140 145 150 154 159 163 168 172 176 181 453 183 190 197 201 206 211 212 215 0
d 223 154 24 30 0
d 224 222 154 24 30 0
d 225 222 154 24 30 0
d 226 1 2 6 7 12 13 18 23 24 29 30 35 40 45 50 55 60 65 70 75 80 85 90 95 100 105 110 115 120 125 130 135 140 145 150 154 159 163 168 172 176 181 453 183 190 197 201 206 211 212 215 222 0
d 228 172 24 30 0
d 229 227 172 24 30 0
d 230 227 172 24 30 0
d 231 1 2 6 7 12 13 18 23 24 29 30 35 40 45 50 55 60 65 70 75 80 85 90 95 100 105 110 115 120 125 130 135 140 145 150 154 159 163 168 172 176 181 453 183 190 197 201 206 211 212 215 222 227 0
d 234 465 2 222 0
d 236 168 235 0
d 237 168 235 227 0
d 238 465 2 222 168 235 227 0
d 239 232 465 2 222 168 235 227 0
d 240 232 465 2 222 168 235 227 0
d 241 1 2 6 7 12 13 18 23 24 29 30 35 40 45 50 55 60 65 70 75 80 85 90 95 100 105 110 115 120 125 130 135 140 145 150 154 159 163 168 172 176 181 453 183 190 197 201 206 211 212 215 222 227 232 465 235 0
d 243 242 7 13 0
d 244 242 7 13 0
d 245 1 2 6 7 12 13 18 23 24 29 30 35 40 45 50 55 60 65 70 75 80 85 90 95 100 105 110 115 120 125 130 135 140 145 150 154 159 163 168 172 176 181 453 183 190 197 201 206 211 212 215 222 227 232 465 235 242 0
d 247 246 24 30 0
d 248 246 24 30 0
d 249 1 2 6 7 12 13 18 23 24 29 30 35 40 45 50 55 60 65 70 75 80 85 90 95 100 105 110 115 120 125 130 135 140 145 150 154 159 163 168 172 176 181 453 183 190 197 201 206 211 212 215 222 227 232 465 235 242 246 0
d 252 250 447 242 246 2 0
d 253 250 447 242 246 2 0
d 254 1 2 6 7 12 13 18 23 24 29 30 35 40 45 50 55 60 65 70 75 80 85 90 95 100 105 110 115 120 125 130 135 140 145 150 154 159 163 168 172 176 181 453 183 190 197 201 206 211 212 215 222 227 232 465 235 242 246 250 447 0
d 256 201 24 30 0
d 257 255 201 24 30 0
d 258 255 201 24 30 0
d 259 1 2 6 7 12 13 18 23 24 29 30 35 40 45 50 55 60 65 70 75 80 85 90 95 100 105 110 115 120 125 130 135 140 145 150 154 159 163 168 172 176 181 453 183 190 197 201 206 211 212 215 222 227 232 465 235 242 246 250 447 255 0
d 262 168 261 0
d 263 168 261 255 0
d 264 260 168 261 255 0
d 265 260 168 261 255 0
d 266 1 2 6 7 12 13 18 23 24 29 30 35 40 45 50 55 60 65 70 75 80 85 90 95 100 105 110 115 120 125 130 135 140 145 150 154 159 163 168 172 176 181 453 183 190 197 201 206 211 212 215 222 227 232 465 235 242 246 250 447 255 260 261 0
d 268 267 24 0
d 269 267 24 0
d 270 1 2 6 7 12 13 18 23 24 29 30 35 40 45 50 55 60 65 70 75 80 85 90 95 100 105 110 115 120 125 130 135 140 145 150 154 159 163 168 172 176 181 453 183 190 197 201 206 211 212 215 222 227 232 465 235 242 246 250 447 255 260 261 267 0
d 272 267 30 0
d 273 271 267 30 0
d 274 271 267 30 0
d 275 1 2 6 7 12 13 18 23 24 29 30 35 40 45 50 55 60 65 70 75 80 85 90 95 100 105 110 115 120 125 130 135 140 145 150 154 159 163 168 172 176 181 453 183 190 197 201 206 211 212 215 222 227 232 465 235 242 246 250 447 255 260 261 267 271 0
d 277 7 13 271 0
d 278 276 7 13 271 0
d 279 276 7 13 271 0
d 280 1 2 6 7 12 13 18 23 24 29 30 35 40 45 50 55 60 65 70 75 80 85 90 95 100 105 110 115 120 125 130 135 140 145 150 154 159 163 168 172 176 181 453 183 190 197 201 206 211 212 215 222 227 232 465 235 242 246 250 447 255 260 261 267 271 276 0
d 282 201 271 0
d 283 281 201 271 0
d 284 281 201 271 0
d 285 1 2 6 7 12 13 18 23 24 29 30 35 40 45 50 55 60 65 70 75 80 85 90 95 100 105 110 115 120 125 130 135 140 145 150 154 159 163 168 172 176 181 453 183 190 197 201 206 211 212 215 222 227 232 465 235 242 246 250 447 255 260 261 267 271 276 281 0
d 287 154 271 0
d 288 286 154 271 0
d 289 286 154 271 0
d 290 1 2 6 7 12 13 18 23 24 29 30 35 40 45 50 55 60 65 70 75 80 85 90 95 100 105 110 115 120 125 130 135 140 145 150 154 159 163 168 172 176 181 453 183 190 197 201 206 211 212 215 222 227 232 465 235 242 246 250 447 255 260 261 267 271 276 281 286 0
d 293 168 292 0
d 294 168 292 286 0
d 295 168 292 286 0
d 296 291 168 292 286 0
d 297 291 168 292 286 0
d 298 1 2 6 7 12 13 18 23 24 29 30 35 40 45 50 55 60 65 70 75 80 85 90 95 100 105 110 115 120 125 130 135 140 145 150 154 159 163 168 172 176 181 453 183 190 197 201 206 211 212 215 222 227 232 465 235 242 246 250 447 255 260 261 267 271 276 281 286 291 292 0
d 300 299 168 0
d 301 299 168 0
d 302 1 2 6 7 12 13 18 23 24 29 30 35 40 45 50 55 60 65 70 75 80 85 90 95 100 105 110 115 120 125 130 135 140 145 150 154 159 163 168 172 176 181 453 183 190 197 201 206 211 212 215 222 227 232 465 235 242 246 250 447 255 260 261 267 271 276 281 286 291 292 299 0
d 304 303 172 0
d 305 303 172 0
d 306 1 2 6 7 12 13 18 23 24 29 30 35 40 45 50 55 60 65 70 75 80 85 90 95 100 105 110 115 120 125 130 135 140 145 150 154 159 163 168 172 176 181 453 183 190 197 201 206 211 212 215 222 227 232 465 235 242 246 250 447 255 260 261 267 271 276 281 286 291 292 299 303 0
d 308 307 271 0
d 309 307 271 0
d 310 1 2 6 7 12 13 18 23 24 29 30 35 40 45 50 55 60 65 70 75 80 85 90 95 100 105 110 115 120 125 130 135 140 145 150 154 159 163 168 172 176 181 453 183 190 197 201 206 211 212 215 222 227 232 465 235 242 246 250 447 255 260 261 267 271 276 281 286 291 292 299 303 307 0
d 312 311 24 30 0
d 313 311 24 30 0
d 314 1 2 6 7 12 13 18 23 24 29 30 35 40 45 50 55 60 65 70 75 80 85 90 95 100 105 110 115 120 125 130 135 140 145 150 154 159 163 168 172 176 181 453 183 190 197 201 206 211 212 215 222 227 232 465 235 242 246 250 447 255 260 261 267 271 276 281 286 291 292 299 303 307 311 0
d 316 7 13 311 0
d 317 315 7 13 311 0
d 318 315 7 13 311 0
d 319 1 2 6 7 12 13 18 23 24 29 30 35 40 45 50 55 60 65 70 75 80 85 90 95 100 105 110 115 120 125 130 135 140 145 150 154 159 163 168 172 176 181 453 183 190 197 201 206 211 212 215 222 227 232 465 235 242 246 250 447 255 260 261 267 271 276 281 286 291 292 299 303 307 311 315 0
d 321 201 311 0
d 322 320 201 311 0
d 323 320 201 311 0
d 324 1 2 6 7 12 13 18 23 24 29 30 35 40 45 50 55 60 65 70 75 80 85 90 95 100 105 110 115 120 125 130 135 140 145 150 154 159 163 168 172 176 181 453 183 190 197 201 206 211 212 215 222 227 232 465 235 242 246 250 447 255 260 261 267 271 276 281 286 291 292 299 303 307 311 315 320 0
d 326 154 311 0
d 327 325 154 311 0
d 328 325 154 311 0
d 329 1 2 6 7 12 13 18 23 24 29 30 35 40 45 50 55 60 65 70 75 80 85 90 95 100 105 110 115 120 125 130 135 140 145 150 154 159 163 168 172 176 181 453 183 190 197 201 206 211 212 215 222 227 232 465 235 242 246 250 447 255 260 261 267 271 276 281 286 291 292 299 303 307 311 315 320 325 0
d 331 172 311 0
d 332 330 172 311 0
d 333 330 172 311 0
d 334 1 2 6 7 12 13 18 23 24 29 30 35 40 45 50 55 60 65 70 75 80 85 90 95 100 105 110 115 120 125 130 135 140 145 150 154 159 163 168 172 176 181 453 183 190 197 201 206 211 212 215 222 227 232 465 235 242 246 250 447 255 260 261 267 271 276 281 286 291 292 299 303 307 311 315 320 325 330 0
d 336 7 13 24 30 0
d 337 335 7 13 24 30 0
d 338 335 7 13 24 30 0
d 339 1 2 6 7 12 13 18 23 24 29 30 35 40 45 50 55 60 65 70 75 80 85 90 95 100 105 110 115 120 125 130 135 140 145 150 154 159 163 168 172 176 181 453 183 190 197 201 206 211 212 215 222 227 232 465 235 242 246 250 447 255 260 261 267 271 276 281 286 291 292 299 303 307 311 315 320 325 330 335 0
d 341 154 24 30 0
d 342 340 154 24 30 0
d 343 340 154 24 30 0
d 344 1 2 6 7 12 13 18 23 24 29 30 35 40 45 50 55 60 65 70 75 80 85 90 95 100 105 110 115 120 125 130 135 140 145 150 154 159 163 168 172 176 181 453 183 190 197 201 206 211 212 215 222 227 232 465 235 242 246 250 447 255 260 261 267 271 276 281 286 291 292 299 303 307 311 315 320 325 330 335 340 0
d 346 345 24 30 0
d 347 345 24 30 0
d 348 1 2 6 7 12 13 18 23 24 29 30 35 40 45 50 55 60 65 70 75 80 85 90 95 100 105 110 115 120 125 130 135 140 145 150 154 159 163 168 172 176 181 453 183 190 197 201 206 211 212 215 222 227 232 465 235 242 246 250 447 255 260 261 267 271 276 281 286 291 292 299 303 307 311 315 320 325 330 335 340 345 0
d 350 349 197 0
d 351 349 197 0
d 352 1 2 6 7 12 13 18 23 24 29 30 35 40 45 50 55 60 65 70 75 80 85 90 95 100 105 110 115 120 125 130 135 140 145 150 154 159 163 168 172 176 181 453 183 190 197 201 206 211 212 215 222 227 232 465 235 242 246 250 447 255 260 261 267 271 276 281 286 291 292 299 303 307 311 315 320 325 330 335 340 345 349 0
d 354 172 271 0
d 355 353 172 271 0
d 356 353 172 271 0
d 357 1 2 6 7 12 13 18 23 24 29 30 35 40 45 50 55 60 65 70 75 80 85 90 95 100 105 110 115 120 125 130 135 140 145 150 154 159 163 168 172 176 181 453 183 190 197 201 206 211 212 215 222 227 232 465 235 242 246 250 447 255 260 261 267 271 276 281 286 291 292 299 303 307 311 315 320 325 330 335 340 345 349 353 0
d 360 168 359 0
d 361 168 359 276 0
d 363 168 362 0
d 364 168 362 281 0
d 365 168 359 276 362 281 0
d 367 168 359 276 362 281 291 299 480 303 307 0
d 369 168 368 0
d 370 168 368 315 0
d 372 168 371 0
d 373 168 371 320 0
d 374 168 368 315 371 320 0
d 376 168 375 0
d 377 168 375 325 0
d 379 168 378 0
d 380 168 378 330 0
d 381 168 375 325 378 330 0
d 382 168 368 315 371 320 375 325 378 330 0
d 383 168 359 276 362 281 291 299 480 303 307 368 315 371 320 375 325 378 330 0
d 384 181 211 232 250 260 168 359 276 362 281 291 299 480 303 307 368 315 371 320 375 325 378 330 0
d 386 2 385 0
d 387 2 385 335 0
d 389 2 388 0
d 390 2 388 255 0
d 391 2 385 335 388 255 0
d 393 2 392 0
d 394 2 392 340 0
d 396 2 395 0
d 397 2 395 176 0
d 398 2 392 340 395 176 0
d 399 2 385 335 388 255 392 340 395 176 0
d 401 2 400 0
d 402 2 400 190 0
d 404 2 400 190 506 345 7 349 0
d 406 2 405 0
d 407 2 405 222 0
d 409 2 408 0
d 410 2 408 227 0
d 411 2 405 222 408 227 0
d 412 2 400 190 506 345 7 349 405 222 408 227 0
d 413 2 385 335 388 255 392 340 395 176 400 190 506 345 7 349 405 222 408 227 0
d 415 2 414 0
d 416 2 414 276 0
d 418 2 417 0
d 419 2 417 281 0
d 420 2 414 276 417 281 0
d 422 2 421 0
d 423 2 421 286 0
d 425 2 424 0
d 426 2 424 353 0
d 427 2 421 286 424 353 0
d 428 2 414 276 417 281 421 286 424 353 0
d 430 2 429 0
d 431 2 429 315 0
d 433 2 432 0
d 434 2 432 320 0
d 435 2 429 315 432 320 0
d 437 2 436 0
d 438 2 436 325 0
d 440 2 439 0
d 441 2 439 330 0
d 442 2 436 325 439 330 0
d 443 2 429 315 432 320 436 325 439 330 0
d 444 2 414 276 417 281 421 286 424 353 429 315 432 320 436 325 439 330 0
d 445 2 385 335 388 255 392 340 395 176 400 190 506 345 7 349 405 222 408 227 414 276 417 281 421 286 424 353 429 315 432 320 436 325 439 330 0
d 446 181 211 232 250 260 168 359 276 362 281 291 299 480 303 307 368 315 371 320 375 325 378 330 2 385 335 388 255 392 340 395 176 400 190 506 345 7 349 405 222 408 227 414 417 421 286 424 353 429 432 436 439 0
d 448 1 447 0
d 449 1 447 40 0
d 450 1 261 0
d 451 1 261 50 0
d 452 1 447 40 261 50 0
d 454 1 453 0
d 455 1 453 60 0
d 456 1 183 0
d 457 1 183 70 0
d 458 1 453 60 183 70 0
d 459 1 447 40 261 50 453 60 183 70 0
d 460 1 212 0
d 461 1 212 80 0
d 462 1 215 0
d 463 1 215 85 0
d 464 1 212 80 215 85 0
d 466 1 465 0
d 467 1 465 90 0
d 468 1 235 0
d 469 1 235 95 0
d 470 1 465 90 235 95 0
d 471 1 212 80 215 85 465 90 235 95 0
d 472 1 447 40 261 50 453 60 183 70 212 80 215 85 465 90 235 95 0
d 473 1 359 0
d 474 1 359 105 0
d 475 1 362 0
d 476 1 362 110 0
d 477 1 359 105 362 110 0
d 478 1 292 0
d 479 1 292 115 0
d 481 1 480 0
d 482 1 480 120 0
d 483 1 292 115 480 120 0
d 484 1 359 105 362 110 292 115 480 120 0
d 485 1 368 0
d 486 1 368 130 0
d 487 1 371 0
d 488 1 371 135 0
d 489 1 368 130 371 135 0
d 490 1 375 0
d 491 1 375 140 0
d 492 1 378 0
d 493 1 378 145 0
d 494 1 375 140 378 145 0
d 495 1 368 130 371 135 375 140 378 145 0
d 496 1 359 105 362 110 292 115 480 120 368 130 371 135 375 140 378 145 0
d 497 1 447 40 261 50 453 60 183 70 212 80 215 85 465 90 235 95 359 105 362 110 292 115 480 120 368 130 371 135 375 140 378 145 0
d 498 2 385 40 0
d 499 2 388 50 0
d 500 2 385 40 388 50 0
d 501 2 392 60 0
d 502 2 395 70 0
d 503 2 392 60 395 70 0
d 504 2 385 40 388 50 392 60 395 70 0
d 505 2 400 80 0
d 507 2 506 0
d 508 2 506 85 0
d 509 2 400 80 506 85 0
d 510 2 405 90 0
d 511 2 408 95 0
d 512 2 405 90 408 95 0
d 513 2 400 80 506 85 405 90 408 95 0
d 514 2 385 40 388 50 392 60 395 70 400 80 506 85 405 90 408 95 0
d 515 2 414 105 0
d 516 2 417 110 0
d 517 2 414 105 417 110 0
d 518 2 421 115 0
d 519 2 424 120 0
d 520 2 421 115 424 120 0
d 521 2 414 105 417 110 421 115 424 120 0
d 522 2 429 130 0
d 523 2 432 135 0
d 524 2 429 130 432 135 0
d 525 2 436 140 0
d 526 2 439 145 0
d 527 2 436 140 439 145 0
d 528 2 429 130 432 135 436 140 439 145 0
d 529 2 414 105 417 110 421 115 424 120 429 130 432 135 436 140 439 145 0
d 530 2 385 40 388 50 392 60 395 70 400 80 506 85 405 90 408 95 414 105 417 110 421 115 424 120 429 130 432 135 436 140 439 145 0
d 531 1 447 40 261 50 453 60 183 70 212 80 215 85 465 90 235 95 359 105 362 110 292 115 480 120 368 130 371 135 375 140 378 145 2 385 388 392 395 400 506 405 408 414 417 421 424 429 432 436 439 0
d 532 181 211 232 250 260 168 359 276 362 281 291 299 480 303 307 368 315 371 320 375 325 378 330 2 385 335 388 255 392 340 395 176 400 190 506 345 7 349 405 222 408 227 414 417 421 286 424 353 429 432 436 439 1 447 40 261 50 453 60 183 70 212 80 215 85 465 90 235 95 105 110 292 115 120 130 135 140 145 0
d 533 1 2 6 7 12 13 18 23 24 29 30 35 40 45 50 55 60 65 70 75 80 85 90 95 100 105 110 115 120 125 130 135 140 145 150 154 159 163 168 172 176 181 453 183 190 197 201 206 211 212 215 222 227 232 465 235 242 246 250 447 255 260 261 267 271 276 281 286 291 292 299 303 307 311 315 320 325 330 335 340 345 349 353 359 362 480 368 371 375 378 385 388 392 395 400 506 405 408 414 417 421 424 429 432 436 439 0
3 2 0
-3 -2 0
4 -1 -3 0
4 1 3 0
-4 -1 3 0
-4 1 -3 0
5 4 0
-5 -4 0
8 7 0
-8 -7 0
9 -6 -8 0
9 6 8 0
-9 -6 8 0
-9 6 -8 0
10 9 0
-10 -9 0
11 -5 0
11 -10 0
-11 5 10 0
14 13 0
-14 -13 0
15 -12 -14 0
15 12 14 0
-15 -12 14 0
-15 12 -14 0
16 15 0
-16 -15 0
17 -11 0
17 -16 0
-17 11 16 0
-19 6 0
-19 12 0
19 -6 -12 0
20 -18 -19 0
20 18 19 0
-20 -18 19 0
-20 18 -19 0
21 20 0
-21 -20 0
22 -17 0
22 -21 0
-22 17 21 0
25 24 0
-25 -24 0
26 -23 -25 0
26 23 25 0
-26 -23 25 0
-26 23 -25 0
27 26 0
-27 -26 0
28 -22 0
28 -27 0
-28 22 27 0
31 30 0
-31 -30 0
32 -29 -31 0
32 29 31 0
-32 -29 31 0
-32 29 -31 0
33 32 0
-33 -32 0
34 -28 0
34 -33 0
-34 28 33 0
-36 23 0
-36 29 0
36 -23 -29 0
37 -35 -36 0
37 35 36 0
-37 -35 36 0
-37 35 -36 0
38 37 0
-38 -37 0
39 -34 0
39 -38 0
-39 34 38 0
-41 18 0
-41 35 0
41 -18 -35 0
42 -40 -41 0
42 40 41 0
-42 -40 41 0
-42 40 -41 0
43 42 0
-43 -42 0
44 -39 0
44 -43 0
-44 39 43 0
-46 7 0
-46 12 0
46 -7 -12 0
47 -45 -46 0
47 45 46 0
-47 -45 46 0
-47 45 -46 0
48 47 0
-48 -47 0
49 -44 0
49 -48 0
-49 44 48 0
-51 45 0
-51 35 0
51 -45 -35 0
52 -50 -51 0
52 50 51 0
-52 -50 51 0
-52 50 -51 0
53 52 0
-53 -52 0
54 -49 0
54 -53 0
-54 49 53 0
-56 6 0
-56 13 0
56 -6 -13 0
57 -55 -56 0
57 55 56 0
-57 -55 56 0
-57 55 -56 0
58 57 0
-58 -57 0
59 -54 0
59 -58 0
-59 54 58 0
-61 55 0
-61 35 0
61 -55 -35 0
62 -60 -61 0
62 60 61 0
-62 -60 61 0
-62 60 -61 0
63 62 0
-63 -62 0
64 -59 0
64 -63 0
-64 59 63 0
-66 7 0
-66 13 0
66 -7 -13 0
67 -65 -66 0
67 65 66 0
-67 -65 66 0
-67 65 -66 0
68 67 0
-68 -67 0
69 -64 0
69 -68 0
-69 64 68 0
-71 65 0
-71 35 0
71 -65 -35 0
72 -70 -71 0
72 70 71 0
-72 -70 71 0
-72 70 -71 0
73 72 0
-73 -72 0
74 -69 0
74 -73 0
-74 69 73 0
-76 24 0
-76 29 0
76 -24 -29 0
77 -75 -76 0
77 75 76 0
-77 -75 76 0
-77 75 -76 0
78 77 0
-78 -77 0
79 -74 0
79 -78 0
-79 74 78 0
-81 18 0
-81 75 0
81 -18 -75 0
82 -80 -81 0
82 80 81 0
-82 -80 81 0
-82 80 -81 0
83 82 0
-83 -82 0
84 -79 0
84 -83 0
-84 79 83 0
-86 45 0
-86 75 0
86 -45 -75 0
87 -85 -86 0
87 85 86 0
-87 -85 86 0
-87 85 -86 0
88 87 0
-88 -87 0
89 -84 0
89 -88 0
-89 84 88 0
-91 55 0
-91 75 0
91 -55 -75 0
92 -90 -91 0
92 90 91 0
-92 -90 91 0
-92 90 -91 0
93 92 0
-93 -92 0
94 -89 0
94 -93 0
-94 89 93 0
-96 65 0
-96 75 0
96 -65 -75 0
97 -95 -96 0
97 95 96 0
-97 -95 96 0
-97 95 -96 0
98 97 0
-98 -97 0
99 -94 0
99 -98 0
-99 94 98 0
-101 23 0
-101 30 0
101 -23 -30 0
102 -100 -101 0
102 100 101 0
-102 -100 101 0
-102 100 -101 0
103 102 0
-103 -102 0
104 -99 0
104 -103 0
-104 99 103 0
-106 18 0
-106 100 0
106 -18 -100 0
107 -105 -106 0
107 105 106 0
-107 -105 106 0
-107 105 -106 0
108 107 0
-108 -107 0
109 -104 0
109 -108 0
-109 104 108 0
-111 45 0
-111 100 0
111 -45 -100 0
112 -110 -111 0
112 110 111 0
-112 -110 111 0
-112 110 -111 0
113 112 0
-113 -112 0
114 -109 0
114 -113 0
-114 109 113 0
-116 55 0
-116 100 0
116 -55 -100 0
117 -115 -116 0
117 115 116 0
-117 -115 116 0
-117 115 -116 0
118 117 0
-118 -117 0
119 -114 0
119 -118 0
-119 114 118 0
-121 65 0
-121 100 0
121 -65 -100 0
122 -120 -121 0
122 120 121 0
-122 -120 121 0
-122 120 -121 0
123 122 0
-123 -122 0
124 -119 0
124 -123 0
-124 119 123 0
-126 24 0
-126 30 0
126 -24 -30 0
127 -125 -126 0
127 125 126 0
-127 -125 126 0
-127 125 -126 0
128 127 0
-128 -127 0
129 -124 0
129 -128 0
-129 124 128 0
-131 18 0
-131 125 0
131 -18 -125 0
132 -130 -131 0
132 130 131 0
-132 -130 131 0
-132 130 -131 0
133 132 0
-133 -132 0
134 -129 0
134 -133 0
-134 129 133 0
-136 45 0
-136 125 0
136 -45 -125 0
137 -135 -136 0
137 135 136 0
-137 -135 136 0
-137 135 -136 0
138 137 0
-138 -137 0
139 -134 0
139 -138 0
-139 134 138 0
-141 55 0
-141 125 0
141 -55 -125 0
142 -140 -141 0
142 140 141 0
-142 -140 141 0
-142 140 -141 0
143 142 0
-143 -142 0
144 -139 0
144 -143 0
-144 139 143 0
-146 65 0
-146 125 0
146 -65 -125 0
147 -145 -146 0
147 145 146 0
-147 -145 146 0
-147 145 -146 0
148 147 0
-148 -147 0
149 -144 0
149 -148 0
-149 144 148 0
151 -150 -8 0
151 150 8 0
-151 -150 8 0
-151 150 -8 0
152 151 0
-152 -151 0
153 -149 0
153 -152 0
-153 149 152 0
-155 150 0
-155 13 0
155 -150 -13 0
156 -154 -155 0
156 154 155 0
-156 -154 155 0
-156 154 -155 0
157 156 0
-157 -156 0
158 -153 0
158 -157 0
-158 153 157 0
160 -159 -154 0
160 159 154 0
-160 -159 154 0
-160 159 -154 0
161 160 0
-161 -160 0
162 -158 0
162 -161 0
-162 158 161 0
165 -163 -164 0
165 163 164 0
-165 -163 164 0
-165 163 -164 0
166 165 0
-166 -165 0
167 -162 0
167 -166 0
-167 162 166 0
169 -168 -3 0
169 168 3 0
-169 -168 3 0
-169 168 -3 0
170 169 0
-170 -169 0
171 -167 0
171 -170 0
-171 167 170 0
173 -172 -66 0
173 172 66 0
-173 -172 66 0
-173 172 -66 0
174 173 0
-174 -173 0
175 -171 0
175 -174 0
-175 171 174 0
-177 172 0
-177 164 0
177 -172 -164 0
178 -176 -177 0
178 176 177 0
-178 -176 177 0
-178 176 -177 0
179 178 0
-179 -178 0
180 -175 0
180 -179 0
-180 175 179 0
-184 168 0
-184 183 0
184 -168 -183 0
-185 184 0
-185 176 0
185 -184 -176 0
186 -182 0
186 -185 0
-186 182 185 0
187 -181 -186 0
187 181 186 0
-187 -181 186 0
-187 181 -186 0
188 187 0
-188 -187 0
189 -180 0
189 -188 0
-189 180 188 0
-193 191 0
-193 192 0
193 -191 -192 0
194 -190 -193 0
194 190 193 0
-194 -190 193 0
-194 190 -193 0
195 194 0
-195 -194 0
196 -189 0
196 -195 0
-196 189 195 0
198 -197 -14 0
198 197 14 0
-198 -197 14 0
-198 197 -14 0
199 198 0
-199 -198 0
200 -196 0
200 -199 0
-200 196 199 0
-202 7 0
-202 197 0
202 -7 -197 0
203 -201 -202 0
203 201 202 0
-203 -201 202 0
-203 201 -202 0
204 203 0
-204 -203 0
205 -200 0
205 -204 0
-205 200 204 0
-207 201 0
-207 192 0
207 -201 -192 0
208 -206 -207 0
208 206 207 0
-208 -206 207 0
-208 206 -207 0
209 208 0
-209 -208 0
210 -205 0
210 -209 0
-210 205 209 0
-213 168 0
-213 212 0
213 -168 -212 0
-214 213 0
-214 190 0
214 -213 -190 0
-216 168 0
-216 215 0
216 -168 -215 0
-217 216 0
-217 206 0
217 -216 -206 0
218 -214 0
218 -217 0
-218 214 217 0
219 -211 -218 0
219 211 218 0
-219 -211 218 0
-219 211 -218 0
220 219 0
-220 -219 0
221 -210 0
221 -220 0
-221 210 220 0
-223 154 0
-223 192 0
223 -154 -192 0
224 -222 -223 0
224 222 223 0
-224 -222 223 0
-224 222 -223 0
225 224 0
-225 -224 0
226 -221 0
226 -225 0
-226 221 225 0
-228 172 0
-228 192 0
228 -172 -192 0
229 -227 -228 0
229 227 228 0
-229 -227 228 0
-229 227 -228 0
230 229 0
-230 -229 0
231 -226 0
231 -230 0
-231 226 230 0
-234 233 0
-234 222 0
234 -233 -222 0
-236 168 0
-236 235 0
236 -168 -235 0
-237 236 0
-237 227 0
237 -236 -227 0
238 -234 0
238 -237 0
-238 234 237 0
239 -232 -238 0
239 232 238 0
-239 -232 238 0
-239 232 -238 0
240 239 0
-240 -239 0
241 -231 0
241 -240 0
-241 231 240 0
243 -242 -191 0
243 242 191 0
-243 -242 191 0
-243 242 -191 0
244 243 0
-244 -243 0
245 -241 0
245 -244 0
-245 241 244 0
247 -246 -164 0
247 246 164 0
-247 -246 164 0
-247 246 -164 0
248 247 0
-248 -247 0
249 -245 0
249 -248 0
-249 245 248 0
252 -250 -251 0
252 250 251 0
-252 -250 251 0
-252 250 -251 0
253 252 0
-253 -252 0
254 -249 0
254 -253 0
-254 249 253 0
-256 201 0
-256 164 0
256 -201 -164 0
257 -255 -256 0
257 255 256 0
-257 -255 256 0
-257 255 -256 0
258 257 0
-258 -257 0
259 -254 0
259 -258 0
-259 254 258 0
-262 168 0
-262 261 0
262 -168 -261 0
-263 262 0
-263 255 0
263 -262 -255 0
264 -260 -263 0
264 260 263 0
-264 -260 263 0
-264 260 -263 0
265 264 0
-265 -264 0
266 -259 0
266 -265 0
-266 259 265 0
268 -267 -25 0
268 267 25 0
-268 -267 25 0
-268 267 -25 0
269 268 0
-269 -268 0
270 -266 0
270 -269 0
-270 266 269 0
-272 267 0
-272 30 0
272 -267 -30 0
273 -271 -272 0
273 271 272 0
-273 -271 272 0
-273 271 -272 0
274 273 0
-274 -273 0
275 -270 0
275 -274 0
-275 270 274 0
-277 191 0
-277 271 0
277 -191 -271 0
278 -276 -277 0
278 276 277 0
-278 -276 277 0
-278 276 -277 0
279 278 0
-279 -278 0
280 -275 0
280 -279 0
-280 275 279 0
-282 201 0
-282 271 0
282 -201 -271 0
283 -281 -282 0
283 281 282 0
-283 -281 282 0
-283 281 -282 0
284 283 0
-284 -283 0
285 -280 0
285 -284 0
-285 280 284 0
-287 154 0
-287 271 0
287 -154 -271 0
288 -286 -287 0
288 286 287 0
-288 -286 287 0
-288 286 -287 0
289 288 0
-289 -288 0
290 -285 0
290 -289 0
-290 285 289 0
-293 168 0
-293 292 0
293 -168 -292 0
294 -293 0
294 -286 0
-294 293 286 0
295 294 0
-295 -294 0
296 -291 -295 0
296 291 295 0
-296 -291 295 0
-296 291 -295 0
297 296 0
-297 -296 0
298 -290 0
298 -297 0
-298 290 297 0
300 -299 -168 0
300 299 168 0
-300 -299 168 0
-300 299 -168 0
301 300 0
-301 -300 0
302 -298 0
302 -301 0
-302 298 301 0
304 -303 -172 0
304 303 172 0
-304 -303 172 0
-304 303 -172 0
305 304 0
-305 -304 0
306 -302 0
306 -305 0
-306 302 305 0
308 -307 -271 0
308 307 271 0
-308 -307 271 0
-308 307 -271 0
309 308 0
-309 -308 0
310 -306 0
310 -309 0
-310 306 309 0
312 -311 -126 0
312 311 126 0
-312 -311 126 0
-312 311 -126 0
313 312 0
-313 -312 0
314 -310 0
314 -313 0
-314 310 313 0
-316 191 0
-316 311 0
316 -191 -311 0
317 -315 -316 0
317 315 316 0
-317 -315 316 0
-317 315 -316 0
318 317 0
-318 -317 0
319 -314 0
319 -318 0
-319 314 318 0
-321 201 0
-321 311 0
321 -201 -311 0
322 -320 -321 0
322 320 321 0
-322 -320 321 0
-322 320 -321 0
323 322 0
-323 -322 0
324 -319 0
324 -323 0
-324 319 323 0
-326 154 0
-326 311 0
326 -154 -311 0
327 -325 -326 0
327 325 326 0
-327 -325 326 0
-327 325 -326 0
328 327 0
-328 -327 0
329 -324 0
329 -328 0
-329 324 328 0
-331 172 0
-331 311 0
331 -172 -311 0
332 -330 -331 0
332 330 331 0
-332 -330 331 0
-332 330 -331 0
333 332 0
-333 -332 0
334 -329 0
334 -333 0
-334 329 333 0
-336 191 0
-336 164 0
336 -191 -164 0
337 -335 -336 0
337 335 336 0
-337 -335 336 0
-337 335 -336 0
338 337 0
-338 -337 0
339 -334 0
339 -338 0
-339 334 338 0
-341 154 0
-341 164 0
341 -154 -164 0
342 -340 -341 0
342 340 341 0
-342 -340 341 0
-342 340 -341 0
343 342 0
-343 -342 0
344 -339 0
344 -343 0
-344 339 343 0
346 -345 -192 0
346 345 192 0
-346 -345 192 0
-346 345 -192 0
347 346 0
-347 -346 0
348 -344 0
348 -347 0
-348 344 347 0
350 -349 -197 0
350 349 197 0
-350 -349 197 0
-350 349 -197 0
351 350 0
-351 -350 0
352 -348 0
352 -351 0
-352 348 351 0
-354 172 0
-354 271 0
354 -172 -271 0
355 -353 -354 0
355 353 354 0
-355 -353 354 0
-355 353 -354 0
356 355 0
-356 -355 0
357 -352 0
357 -356 0
-357 352 356 0
-360 168 0
-360 359 0
360 -168 -359 0
-361 360 0
-361 276 0
361 -360 -276 0
-363 168 0
-363 362 0
363 -168 -362 0
-364 363 0
-364 281 0
364 -363 -281 0
365 -361 0
365 -364 0
-365 361 364 0
367 -365 0
367 -366 0
-367 365 366 0
-369 168 0
-369 368 0
369 -168 -368 0
-370 369 0
-370 315 0
370 -369 -315 0
-372 168 0
-372 371 0
372 -168 -371 0
-373 372 0
-373 320 0
373 -372 -320 0
374 -370 0
374 -373 0
-374 370 373 0
-376 168 0
-376 375 0
376 -168 -375 0
-377 376 0
-377 325 0
377 -376 -325 0
-379 168 0
-379 378 0
379 -168 -378 0
-380 379 0
-380 330 0
380 -379 -330 0
381 -377 0
381 -380 0
-381 377 380 0
382 -374 0
382 -381 0
-382 374 381 0
383 -367 0
383 -382 0
-383 367 382 0
384 -358 0
384 -383 0
-384 358 383 0
-386 2 0
-386 385 0
386 -2 -385 0
-387 386 0
-387 335 0
387 -386 -335 0
-389 2 0
-389 388 0
389 -2 -388 0
-390 389 0
-390 255 0
390 -389 -255 0
391 -387 0
391 -390 0
-391 387 390 0
-393 2 0
-393 392 0
393 -2 -392 0
-394 393 0
-394 340 0
394 -393 -340 0
-396 2 0
-396 395 0
396 -2 -395 0
-397 396 0
-397 176 0
397 -396 -176 0
398 -394 0
398 -397 0
-398 394 397 0
399 -391 0
399 -398 0
-399 391 398 0
-401 2 0
-401 400 0
401 -2 -400 0
-402 401 0
-402 190 0
402 -401 -190 0
404 -402 0
404 -403 0
-404 402 403 0
-406 2 0
-406 405 0
406 -2 -405 0
-407 406 0
-407 222 0
407 -406 -222 0
-409 2 0
-409 408 0
409 -2 -408 0
-410 409 0
-410 227 0
410 -409 -227 0
411 -407 0
411 -410 0
-411 407 410 0
412 -404 0
412 -411 0
-412 404 411 0
413 -399 0
413 -412 0
-413 399 412 0
-415 2 0
-415 414 0
415 -2 -414 0
-416 415 0
-416 276 0
416 -415 -276 0
-418 2 0
-418 417 0
418 -2 -417 0
-419 418 0
-419 281 0
419 -418 -281 0
420 -416 0
420 -419 0
-420 416 419 0
-422 2 0
-422 421 0
422 -2 -421 0
-423 422 0
-423 286 0
423 -422 -286 0
-425 2 0
-425 424 0
425 -2 -424 0
-426 425 0
-426 353 0
426 -425 -353 0
427 -423 0
427 -426 0
-427 423 426 0
428 -420 0
428 -427 0
-428 420 427 0
-430 2 0
-430 429 0
430 -2 -429 0
-431 430 0
-431 315 0
431 -430 -315 0
-433 2 0
-433 432 0
433 -2 -432 0
-434 433 0
-434 320 0
434 -433 -320 0
435 -431 0
435 -434 0
-435 431 434 0
-437 2 0
-437 436 0
437 -2 -436 0
-438 437 0
-438 325 0
438 -437 -325 0
-440 2 0
-440 439 0
440 -2 -439 0
-441 440 0
-441 330 0
441 -440 -330 0
442 -438 0
442 -441 0
-442 438 441 0
443 -435 0
443 -442 0
-443 435 442 0
444 -428 0
444 -443 0
-444 428 443 0
445 -413 0
445 -444 0
-445 413 444 0
446 -384 0
446 -445 0
-446 384 445 0
-448 1 0
-448 447 0
448 -1 -447 0
-449 448 0
-449 40 0
449 -448 -40 0
-450 1 0
-450 261 0
450 -1 -261 0
-451 450 0
-451 50 0
451 -450 -50 0
452 -449 0
452 -451 0
-452 449 451 0
-454 1 0
-454 453 0
454 -1 -453 0
-455 454 0
-455 60 0
455 -454 -60 0
-456 1 0
-456 183 0
456 -1 -183 0
-457 456 0
-457 70 0
457 -456 -70 0
458 -455 0
458 -457 0
-458 455 457 0
459 -452 0
459 -458 0
-459 452 458 0
-460 1 0
-460 212 0
460 -1 -212 0
-461 460 0
-461 80 0
461 -460 -80 0
-462 1 0
-462 215 0
462 -1 -215 0
-463 462 0
-463 85 0
463 -462 -85 0
464 -461 0
464 -463 0
-464 461 463 0
-466 1 0
-466 465 0
466 -1 -465 0
-467 466 0
-467 90 0
467 -466 -90 0
-468 1 0
-468 235 0
468 -1 -235 0
-469 468 0
-469 95 0
469 -468 -95 0
470 -467 0
470 -469 0
-470 467 469 0
471 -464 0
471 -470 0
-471 464 470 0
472 -459 0
472 -471 0
-472 459 471 0
-473 1 0
-473 359 0
473 -1 -359 0
-474 473 0
-474 105 0
474 -473 -105 0
-475 1 0
-475 362 0
475 -1 -362 0
-476 475 0
-476 110 0
476 -475 -110 0
477 -474 0
477 -476 0
-477 474 476 0
-478 1 0
-478 292 0
478 -1 -292 0
-479 478 0
-479 115 0
479 -478 -115 0
-481 1 0
-481 480 0
481 -1 -480 0
-482 481 0
-482 120 0
482 -481 -120 0
483 -479 0
483 -482 0
-483 479 482 0
484 -477 0
484 -483 0
-484 477 483 0
-485 1 0
-485 368 0
485 -1 -368 0
-486 485 0
-486 130 0
486 -485 -130 0
-487 1 0
-487 371 0
487 -1 -371 0
-488 487 0
-488 135 0
488 -487 -135 0
489 -486 0
489 -488 0
-489 486 488 0
-490 1 0
-490 375 0
490 -1 -375 0
-491 490 0
-491 140 0
491 -490 -140 0
-492 1 0
-492 378 0
492 -1 -378 0
-493 492 0
-493 145 0
493 -492 -145 0
494 -491 0
494 -493 0
-494 491 493 0
495 -489 0
495 -494 0
-495 489 494 0
496 -484 0
496 -495 0
-496 484 495 0
497 -472 0
497 -496 0
-497 472 496 0
-498 386 0
-498 40 0
498 -386 -40 0
-499 389 0
-499 50 0
499 -389 -50 0
500 -498 0
500 -499 0
-500 498 499 0
-501 393 0
-501 60 0
501 -393 -60 0
-502 396 0
-502 70 0
502 -396 -70 0
503 -501 0
503 -502 0
-503 501 502 0
504 -500 0
504 -503 0
-504 500 503 0
-505 401 0
-505 80 0
505 -401 -80 0
-507 2 0
-507 506 0
507 -2 -506 0
-508 507 0
-508 85 0
508 -507 -85 0
509 -505 0
509 -508 0
-509 505 508 0
-510 406 0
-510 90 0
510 -406 -90 0
-511 409 0
-511 95 0
511 -409 -95 0
512 -510 0
512 -511 0
-512 510 511 0
513 -509 0
513 -512 0
-513 509 512 0
514 -504 0
514 -513 0
-514 504 513 0
-515 415 0
-515 105 0
515 -415 -105 0
-516 418 0
-516 110 0
516 -418 -110 0
517 -515 0
517 -516 0
-517 515 516 0
-518 422 0
-518 115 0
518 -422 -115 0
-519 425 0
-519 120 0
519 -425 -120 0
520 -518 0
520 -519 0
-520 518 519 0
521 -517 0
521 -520 0
-521 517 520 0
-522 430 0
-522 130 0
522 -430 -130 0
-523 433 0
-523 135 0
523 -433 -135 0
524 -522 0
524 -523 0
-524 522 523 0
-525 437 0
-525 140 0
525 -437 -140 0
-526 440 0
-526 145 0
526 -440 -145 0
527 -525 0
527 -526 0
-527 525 526 0
528 -524 0
528 -527 0
-528 524 527 0
529 -521 0
529 -528 0
-529 521 528 0
530 -514 0
530 -529 0
-530 514 529 0
531 -497 0
531 -530 0
-531 497 530 0
532 -446 -531 0
532 446 531 0
-532 -446 531 0
-532 446 -531 0
533 -357 0
533 -532 0
-533 357 532 0
533 0
